c ind 12 13 16 19 20 27 28 32 35 42 0
c ind 45 54 57 64 67 7 79 8 88 0
p cnf 93 285
-1 2 0
-1 36 0
-10 -11 0
-11 -12 13 0
-11 -13 12 0
-14 -15 17 0
-14 15 21 0
-15 -12 16 0
-15 -16 12 0
-17 -18 0
-18 -19 20 0
-18 -20 19 0
-2 -3 29 0
-2 3 34 0
-20 0
-21 -22 0
-22 -16 19 0
-22 -19 16 0
-23 -24 0
-24 -19 19 0
-25 -26 0
-26 -27 28 0
-26 -28 27 0
-29 -30 31 0
-29 30 33 0
-3 4 25 0
-30 -16 27 0
-30 -27 16 0
-31 -32 7 0
-31 -7 32 0
-33 -20 32 0
-33 -32 20 0
-34 -32 35 0
-34 -35 32 0
-36 -37 46 0
-36 37 93 0
-37 -20 38 0
-37 -38 20 0
-38 -39 -20 0
-38 39 20 0
-39 -40 -43 0
-39 40 43 0
-4 5 9 0
-40 -41 -16 0
-40 41 16 0
-41 -42 0
-43 -44 -16 0
-43 44 16 0
-44 -45 0
-46 -47 48 0
-46 47 70 0
-47 -20 40 0
-47 -40 20 0
-48 -49 58 0
-48 49 68 0
-49 -20 50 0
-49 -50 20 0
-5 -6 0
-50 -51 -20 0
-50 51 20 0
-51 -52 -55 0
-51 52 55 0
-52 -53 -16 0
-52 53 16 0
-53 -54 0
-55 -56 -16 0
-55 56 16 0
-56 -57 0
-58 -59 16 0
-58 59 20 0
-59 -20 60 0
-59 -60 20 0
-6 -7 8 0
-6 -8 7 0
-60 -61 -20 0
-60 61 20 0
-61 -62 -65 0
-61 62 65 0
-62 -63 -16 0
-62 63 16 0
-63 -64 0
-65 -66 -16 0
-65 66 16 0
-66 -67 0
-68 -69 16 0
-68 69 20 0
-69 -16 65 0
-69 -65 16 0
-70 -71 72 0
-70 71 58 0
-71 -16 52 0
-71 -52 16 0
-72 -49 58 0
-72 49 73 0
-73 -74 80 0
-73 74 92 0
-74 -20 75 0
-74 -75 20 0
-75 -76 -20 0
-75 76 20 0
-76 -43 -77 0
-76 43 77 0
-77 -78 -16 0
-77 78 16 0
-78 -79 0
-80 -81 82 0
-80 81 89 0
-81 -20 43 0
-81 -43 20 0
-82 -83 89 0
-82 83 68 0
-83 -20 84 0
-83 -84 20 0
-84 -85 -20 0
-84 85 20 0
-85 -55 -86 0
-85 55 86 0
-86 -87 -16 0
-86 87 16 0
-87 -88 0
-89 -90 16 0
-89 90 91 0
-9 -10 14 0
-9 10 23 0
-90 -20 65 0
-90 -65 20 0
-91 -59 16 0
-91 59 68 0
-92 -81 68 0
-92 81 89 0
-93 -47 68 0
-93 47 70 0
1 -2 -36 0
1 0
10 11 0
11 -12 -13 0
11 12 13 0
14 -15 -17 0
14 -17 -21 0
14 15 -21 0
15 -12 -16 0
15 12 16 0
16 0
17 18 0
18 -19 -20 0
18 19 20 0
2 -29 -34 0
2 -3 -29 0
2 3 -34 0
21 22 0
22 -19 -16 0
22 19 16 0
23 24 0
24 -19 -19 0
24 19 19 0
25 26 0
26 -27 -28 0
26 27 28 0
29 -30 -31 0
29 -31 -33 0
29 30 -33 0
3 -25 0
3 -4 0
30 -27 -16 0
30 27 16 0
31 -32 -7 0
31 32 7 0
33 -32 -20 0
33 32 20 0
34 -32 -35 0
34 32 35 0
36 -37 -46 0
36 -46 -93 0
36 37 -93 0
37 -38 -20 0
37 38 20 0
38 -20 39 0
38 -39 20 0
39 -40 43 0
39 -43 40 0
4 -5 0
4 -9 0
40 -16 41 0
40 -41 16 0
41 42 0
43 -16 44 0
43 -44 16 0
44 45 0
46 -47 -48 0
46 -48 -70 0
46 47 -70 0
47 -40 -20 0
47 40 20 0
48 -49 -58 0
48 -58 -68 0
48 49 -68 0
49 -50 -20 0
49 50 20 0
5 6 0
50 -20 51 0
50 -51 20 0
51 -52 55 0
51 -55 52 0
52 -16 53 0
52 -53 16 0
53 54 0
55 -16 56 0
55 -56 16 0
56 57 0
58 -16 -20 0
58 -59 -16 0
58 59 -20 0
59 -60 -20 0
59 60 20 0
6 -7 -8 0
6 7 8 0
60 -20 61 0
60 -61 20 0
61 -62 65 0
61 -65 62 0
62 -16 63 0
62 -63 16 0
63 64 0
65 -16 66 0
65 -66 16 0
66 67 0
68 -16 -20 0
68 -69 -16 0
68 69 -20 0
69 -65 -16 0
69 65 16 0
70 -71 -72 0
70 -72 -58 0
70 71 -58 0
71 -52 -16 0
71 52 16 0
72 -49 -58 0
72 -58 -73 0
72 49 -73 0
73 -74 -80 0
73 -80 -92 0
73 74 -92 0
74 -75 -20 0
74 75 20 0
75 -20 76 0
75 -76 20 0
76 -43 77 0
76 -77 43 0
77 -16 78 0
77 -78 16 0
78 79 0
80 -81 -82 0
80 -82 -89 0
80 81 -89 0
81 -43 -20 0
81 43 20 0
82 -83 -89 0
82 -89 -68 0
82 83 -68 0
83 -84 -20 0
83 84 20 0
84 -20 85 0
84 -85 20 0
85 -55 86 0
85 -86 55 0
86 -16 87 0
86 -87 16 0
87 88 0
89 -16 -91 0
89 -90 -16 0
89 90 -91 0
9 -10 -14 0
9 -14 -23 0
9 10 -23 0
90 -65 -20 0
90 65 20 0
91 -16 -68 0
91 -59 -16 0
91 59 -68 0
92 -68 -89 0
92 -81 -68 0
92 81 -89 0
93 -47 -68 0
93 -68 -70 0
93 47 -70 0
